Welcome to the CBC MILP Solver 
Version: 2.10.12 
Build Date: Aug 20 2024 

command line - /opt/homebrew/bin/cbc computational_data/real_data/lp/wdbc_trial_000_margin.lp seconds 10.0 solve solu computational_data/real_data/solutions/wdbc_trial_000_margin.sol (default strategy 1)
 CoinLpIO::readLp(): Maximization problem reformulated as minimization
Coin0009I Switching back to maximization to get correct duals etc
seconds was changed from 1e+100 to 10
Continuous objective value is 113.006 - 0.00 seconds
Cgl0003I 0 fixed, 0 tightened bounds, 128 strengthened rows, 0 substitutions
Cgl0003I 0 fixed, 0 tightened bounds, 41 strengthened rows, 0 substitutions
Cgl0003I 0 fixed, 0 tightened bounds, 30 strengthened rows, 0 substitutions
Cgl0003I 0 fixed, 0 tightened bounds, 9 strengthened rows, 0 substitutions
Cgl0003I 0 fixed, 0 tightened bounds, 6 strengthened rows, 0 substitutions
Cgl0003I 0 fixed, 0 tightened bounds, 4 strengthened rows, 0 substitutions
Cgl0003I 0 fixed, 0 tightened bounds, 4 strengthened rows, 0 substitutions
Cgl0003I 0 fixed, 0 tightened bounds, 1 strengthened rows, 0 substitutions
Cgl0004I processed model has 92 rows, 57 columns (57 integer (57 of which binary)) and 1158 elements
Cbc0038I Initial state - 13 integers unsatisfied sum - 4.25
Cbc0038I Pass   1: suminf.    0.57143 (4) obj. 112.434 iterations 17
Cbc0038I Pass   2: suminf.    0.57143 (4) obj. 112.434 iterations 7
Cbc0038I Solution found of 109.006
Cbc0038I Before mini branch and bound, 39 integers at bound fixed and 0 continuous
Cbc0038I Full problem 92 rows 57 columns, reduced to 30 rows 14 columns
Cbc0038I Mini branch and bound improved solution from 109.006 to 111.006 (0.01 seconds)
Cbc0038I Round again with cutoff of 111.206
Cbc0038I Pass   3: suminf.    0.57143 (4) obj. 112.434 iterations 0
Cbc0038I Pass   4: suminf.    0.57143 (4) obj. 112.434 iterations 3
Cbc0038I Pass   5: suminf.    0.77144 (3) obj. 111.206 iterations 15
Cbc0038I Pass   6: suminf.    0.77144 (3) obj. 111.206 iterations 6
Cbc0038I Pass   7: suminf.    0.77144 (3) obj. 111.206 iterations 5
Cbc0038I Pass   8: suminf.    0.77144 (3) obj. 111.206 iterations 0
Cbc0038I Pass   9: suminf.    0.77144 (3) obj. 111.206 iterations 6
Cbc0038I Pass  10: suminf.    1.77145 (5) obj. 111.206 iterations 13
Cbc0038I Pass  11: suminf.    0.79998 (4) obj. 111.206 iterations 9
Cbc0038I Pass  12: suminf.    0.42857 (3) obj. 111.577 iterations 3
Cbc0038I Pass  13: suminf.    0.77144 (3) obj. 111.206 iterations 5
Cbc0038I Pass  14: suminf.    0.77144 (3) obj. 111.206 iterations 4
Cbc0038I Pass  15: suminf.    0.77144 (3) obj. 111.206 iterations 6
Cbc0038I Pass  16: suminf.    0.77144 (3) obj. 111.206 iterations 2
Cbc0038I Pass  17: suminf.    0.77144 (3) obj. 111.206 iterations 10
Cbc0038I Pass  18: suminf.    1.77145 (5) obj. 111.206 iterations 21
Cbc0038I Pass  19: suminf.    0.79997 (4) obj. 111.206 iterations 20
Cbc0038I Pass  20: suminf.    0.42857 (3) obj. 111.577 iterations 1
Cbc0038I Pass  21: suminf.    0.77146 (3) obj. 111.206 iterations 3
Cbc0038I Pass  22: suminf.    0.77146 (3) obj. 111.206 iterations 2
Cbc0038I Pass  23: suminf.    0.77146 (3) obj. 111.206 iterations 3
Cbc0038I Pass  24: suminf.    0.77146 (3) obj. 111.206 iterations 0
Cbc0038I Pass  25: suminf.    0.77146 (3) obj. 111.206 iterations 9
Cbc0038I Pass  26: suminf.    0.79997 (4) obj. 111.206 iterations 8
Cbc0038I Pass  27: suminf.    0.42857 (3) obj. 111.577 iterations 7
Cbc0038I Pass  28: suminf.    0.77146 (3) obj. 111.206 iterations 3
Cbc0038I Pass  29: suminf.    0.77146 (3) obj. 111.206 iterations 3
Cbc0038I Pass  30: suminf.    0.77146 (3) obj. 111.206 iterations 7
Cbc0038I Pass  31: suminf.    0.77146 (3) obj. 111.206 iterations 2
Cbc0038I Pass  32: suminf.    0.77146 (3) obj. 111.206 iterations 6
Cbc0038I No solution found this major pass
Cbc0038I Before mini branch and bound, 34 integers at bound fixed and 0 continuous
Cbc0038I Full problem 92 rows 57 columns, reduced to 45 rows 20 columns
Cbc0038I Mini branch and bound did not improve solution (0.01 seconds)
Cbc0038I After 0.01 seconds - Feasibility pump exiting with objective of 111.006 - took 0.01 seconds
Cbc0012I Integer solution of 111.00571 found by feasibility pump after 0 iterations and 0 nodes (0.01 seconds)
Cbc0038I Full problem 92 rows 57 columns, reduced to 30 rows 12 columns
Cbc0031I 4 added rows had average density of 28.75
Cbc0013I At root node, 24 cuts changed objective from 113.00568 to 111.00571 in 2 passes
Cbc0014I Cut generator 0 (Probing) - 0 row cuts average 0.0 elements, 0 column cuts (0 active)  in 0.000 seconds - new frequency is -100
Cbc0014I Cut generator 1 (Gomory) - 13 row cuts average 28.4 elements, 0 column cuts (0 active)  in 0.000 seconds - new frequency is 1
Cbc0014I Cut generator 2 (Knapsack) - 0 row cuts average 0.0 elements, 0 column cuts (0 active)  in 0.000 seconds - new frequency is -100
Cbc0014I Cut generator 3 (Clique) - 0 row cuts average 0.0 elements, 0 column cuts (0 active)  in 0.000 seconds - new frequency is -100
Cbc0014I Cut generator 4 (MixedIntegerRounding2) - 0 row cuts average 0.0 elements, 0 column cuts (0 active)  in 0.000 seconds - new frequency is -100
Cbc0014I Cut generator 5 (FlowCover) - 0 row cuts average 0.0 elements, 0 column cuts (0 active)  in 0.000 seconds - new frequency is -100
Cbc0014I Cut generator 6 (TwoMirCuts) - 18 row cuts average 23.7 elements, 0 column cuts (0 active)  in 0.000 seconds - new frequency is 1
Cbc0014I Cut generator 7 (ZeroHalf) - 3 row cuts average 5.0 elements, 0 column cuts (0 active)  in 0.002 seconds - new frequency is 1
Cbc0001I Search completed - best objective 111.005708, took 65 iterations and 0 nodes (0.02 seconds)
Cbc0035I Maximum depth 0, 0 variables fixed on reduced cost
Cuts at root node changed objective from 113.006 to 111.006
Probing was tried 2 times and created 0 cuts of which 0 were active after adding rounds of cuts (0.000 seconds)
Gomory was tried 2 times and created 13 cuts of which 0 were active after adding rounds of cuts (0.000 seconds)
Knapsack was tried 2 times and created 0 cuts of which 0 were active after adding rounds of cuts (0.000 seconds)
Clique was tried 2 times and created 0 cuts of which 0 were active after adding rounds of cuts (0.000 seconds)
MixedIntegerRounding2 was tried 2 times and created 0 cuts of which 0 were active after adding rounds of cuts (0.000 seconds)
FlowCover was tried 2 times and created 0 cuts of which 0 were active after adding rounds of cuts (0.000 seconds)
TwoMirCuts was tried 2 times and created 18 cuts of which 0 were active after adding rounds of cuts (0.000 seconds)
ZeroHalf was tried 2 times and created 3 cuts of which 0 were active after adding rounds of cuts (0.002 seconds)

Result - Optimal solution found

Objective value:                111.00570800
Enumerated nodes:               0
Total iterations:               65
Time (CPU seconds):             0.02
Time (Wallclock seconds):       0.03

Total time (CPU seconds):       0.02   (Wallclock seconds):       0.03

